num_process_links = 490;
process_links_to = array1d(1..490,[99, 100, 99, 98, 96, 99, 100, 93, 95, 84, 99, 92, 92, 87, 87, 83, 96, 86, 81, 96, 85, 95, 94, 99, 97, 88, 87, 86, 81, 76, 99, 88, 83, 100, 93, 92, 89, 76, 75, 85, 100, 85, 80, 76, 73, 82, 72, 96, 75, 97, 96, 93, 90, 98, 92, 76, 69, 100, 93, 91, 84, 100, 93, 92, 84, 78, 99, 96, 89, 88, 78, 76, 69, 62, 92, 86, 75, 67, 64, 99, 97, 90, 84, 81, 76, 95, 94, 88, 77, 59, 58, 91, 90, 82, 78, 76, 70, 69, 64, 61, 82, 80, 100, 88, 61, 58, 87, 85, 62, 98, 91, 86, 66, 97, 94, 91, 76, 56, 52, 99, 76, 65, 63, 62, 97, 89, 66, 62, 57, 100, 92, 80, 76, 69, 60, 55, 73, 71, 59, 47, 84, 71, 94, 92, 89, 79, 66, 84, 80, 72, 53, 100, 86, 73, 71, 68, 66, 60, 59, 46, 87, 61, 53, 85, 76, 72, 70, 64, 60, 83, 82, 75, 73, 61, 45, 42, 96, 74, 59, 58, 56, 50, 47, 44, 67, 58, 96, 87, 84, 82, 77, 74, 73, 66, 58, 56, 55, 48, 38, 97, 84, 77, 67, 39, 95, 85, 75, 73, 62, 61, 51, 48, 39, 90, 64, 54, 49, 38, 78, 47, 41, 38, 99, 97, 91, 83, 79, 75, 73, 58, 45, 40, 93, 90, 82, 73, 69, 65, 53, 34, 98, 96, 95, 92, 80, 71, 68, 65, 57, 45, 62, 39, 29, 97, 60, 59, 57, 49, 86, 83, 81, 78, 76, 75, 74, 68, 61, 54, 51, 50, 40, 31, 29, 86, 74, 59, 38, 89, 80, 64, 63, 56, 51, 50, 44, 38, 96, 89, 84, 73, 59, 56, 43, 37, 98, 93, 70, 59, 58, 41, 38, 34, 31, 25, 84, 78, 74, 70, 61, 54, 53, 32, 24, 23, 98, 83, 64, 60, 41, 31, 22, 98, 97, 90, 74, 27, 90, 87, 70, 42, 37, 19, 71, 59, 42, 34, 33, 82, 73, 53, 52, 46, 34, 23, 97, 95, 92, 48, 45, 38, 34, 25, 20, 97, 72, 70, 61, 60, 59, 27, 17, 91, 77, 52, 35, 27, 15, 14, 73, 70, 62, 55, 53, 51, 47, 34, 20, 19, 99, 93, 62, 57, 52, 49, 36, 26, 14, 95, 83, 78, 75, 49, 36, 34, 31, 25, 24, 21, 19, 81, 63, 62, 53, 38, 35, 27, 21, 12, 100, 95, 91, 90, 84, 81, 74, 61, 41, 29, 17, 78, 75, 66, 58, 53, 51, 29, 26, 21, 20, 9, 96, 77, 66, 65, 53, 43, 28, 22, 9, 8, 61, 51, 45, 34, 23, 20, 83, 72, 18, 11, 9, 95, 94, 89, 73, 69, 64, 31, 23, 16, 99, 87, 79, 68, 57, 54, 53, 42, 41, 40, 32, 29, 7, 5, 89, 74, 73, 72, 62, 57, 49, 46, 39, 23, 16, 14, 11, 8, 6, 3]);
process_links_from = array1d(1..490,[96, 94, 94, 93, 93, 88, 86, 84, 83, 83, 82, 82, 81, 81, 80, 80, 79, 79, 79, 78, 77, 76, 76, 75, 75, 74, 74, 74, 74, 74, 73, 73, 73, 72, 72, 72, 72, 72, 72, 71, 70, 70, 70, 70, 70, 69, 69, 68, 68, 67, 67, 67, 67, 66, 66, 66, 66, 65, 65, 65, 65, 64, 64, 63, 63, 63, 62, 62, 62, 62, 62, 61, 61, 61, 59, 59, 59, 59, 59, 58, 58, 58, 58, 58, 58, 57, 57, 57, 57, 57, 57, 56, 56, 56, 56, 56, 56, 56, 56, 56, 55, 55, 54, 54, 54, 53, 52, 52, 52, 51, 51, 51, 51, 50, 50, 50, 50, 50, 50, 49, 49, 49, 49, 49, 48, 48, 48, 48, 48, 47, 47, 47, 47, 47, 47, 47, 46, 46, 46, 46, 45, 45, 44, 44, 44, 44, 44, 43, 43, 43, 43, 42, 42, 42, 42, 42, 42, 42, 42, 42, 41, 41, 41, 40, 40, 40, 40, 40, 40, 39, 39, 39, 39, 39, 39, 39, 38, 38, 38, 38, 38, 38, 38, 38, 37, 37, 36, 36, 36, 36, 36, 36, 36, 36, 36, 36, 36, 36, 36, 35, 35, 35, 35, 35, 34, 34, 34, 34, 34, 34, 34, 34, 34, 33, 33, 33, 33, 33, 32, 32, 32, 32, 31, 31, 31, 31, 31, 31, 31, 31, 31, 31, 30, 30, 30, 30, 30, 30, 30, 30, 29, 29, 29, 29, 29, 29, 29, 29, 29, 29, 28, 28, 28, 27, 27, 27, 27, 27, 26, 26, 26, 26, 26, 26, 26, 26, 26, 26, 26, 26, 26, 26, 26, 25, 25, 25, 25, 24, 24, 24, 24, 24, 24, 24, 24, 24, 23, 23, 23, 23, 23, 23, 23, 23, 22, 22, 22, 22, 22, 22, 22, 22, 22, 22, 21, 21, 21, 21, 21, 21, 21, 21, 21, 21, 20, 20, 20, 20, 20, 20, 20, 19, 19, 19, 19, 19, 18, 18, 18, 18, 18, 18, 17, 17, 17, 17, 17, 16, 16, 16, 16, 16, 16, 16, 15, 15, 15, 15, 15, 15, 15, 15, 15, 14, 14, 14, 14, 14, 14, 14, 14, 13, 13, 13, 13, 13, 13, 13, 12, 12, 12, 12, 12, 12, 12, 12, 12, 12, 11, 11, 11, 11, 11, 11, 11, 11, 11, 10, 10, 10, 10, 10, 10, 10, 10, 10, 10, 10, 10, 9, 9, 9, 9, 9, 9, 9, 9, 9, 8, 8, 8, 8, 8, 8, 8, 8, 8, 8, 8, 7, 7, 7, 7, 7, 7, 7, 7, 7, 7, 7, 6, 6, 6, 6, 6, 6, 6, 6, 6, 6, 5, 5, 5, 5, 5, 5, 4, 4, 4, 4, 4, 3, 3, 3, 3, 3, 3, 3, 3, 3, 2, 2, 2, 2, 2, 2, 2, 2, 2, 2, 2, 2, 2, 2, 1, 1, 1, 1, 1, 1, 1, 1, 1, 1, 1, 1, 1, 1, 1, 1]);
process_memory = array1d(1..100,[53, 11, 75, 139, 333, 34, 500, 174, 239, 502, 368, 180, 187, 436, 255, 201, 364, 316, 250, 449, 400, 303, 323, 233, 144, 493, 289, 298, 187, 201, 116, 381, 41, 230, 274, 177, 429, 454, 103, 59, 406, 220, 280, 487, 180, 144, 381, 188, 383, 269, 394, 59, 458, 308, 96, 75, 170, 109, 56, 394, 436, 379, 269, 193, 408, 58, 381, 313, 383, 128, 418, 435, 25, 137, 346, 261, 23, 334, 367, 264, 322, 173, 134, 464, 408, 370, 51, 183, 443, 329, 371, 362, 239, 302, 57, 158, 238, 185, 363, 326]);
node_memory = array1d(1..50,[712, 1157, 1585, 1964, 1984, 729, 1900, 788, 684, 749, 917, 1270, 1356, 818, 1439, 1208, 1458, 1332, 1450, 1634, 879, 942, 1496, 1838, 1843, 1633, 688, 1036, 1698, 1585, 519, 822, 1065, 787, 1351, 818, 1952, 1417, 690, 1184, 794, 675, 526, 966, 861, 725, 1299, 1883, 771, 1193]);
node_cpu = array1d(1..50,[931, 621, 542, 773, 912, 503, 839, 513, 812, 635, 791, 868, 797, 741, 734, 749, 985, 577, 547, 891, 610, 782, 777, 716, 901, 944, 560, 680, 669, 930, 593, 907, 535, 980, 845, 603, 767, 786, 729, 979, 650, 944, 984, 796, 510, 873, 861, 613, 545, 862]);
topology = array2d(1..50,1..50,[true, false, true, true, true, true, true, false, false, true, true, true, true, true, true, true, true, true, true, true, true, true, true, false, true, true, true, true, true, true, true, true, true, true, true, true, true, true, true, true, true, true, true, true, false, true, true, true, true, true, false, true, true, true, true, true, false, true, true, true, true, true, true, false, true, true, true, true, true, true, true, true, true, true, true, true, true, false, true, true, false, true, true, true, true, true, true, true, false, true, true, true, true, true, true, true, true, true, true, true, true, true, true, true, true, true, true, true, true, true, true, true, false, true, true, false, true, true, true, true, true, false, true, true, true, true, true, false, true, true, true, true, true, true, true, true, true, true, true, true, true, false, true, true, false, true, true, true, true, true, true, true, true, true, true, false, true, true, true, true, true, false, true, true, true, true, true, true, true, true, true, true, true, true, false, true, true, true, true, true, true, false, true, true, true, true, true, true, true, true, true, true, true, true, false, true, true, true, true, true, true, true, true, true, true, true, true, true, true, true, true, true, true, true, true, true, true, true, true, true, true, true, true, true, true, true, true, true, true, true, true, true, true, true, true, true, true, true, true, true, true, true, true, true, false, true, true, true, true, true, true, true, true, false, true, true, false, true, true, true, true, false, true, true, true, true, true, true, true, true, true, true, true, true, true, true, true, true, true, true, true, true, true, false, true, true, true, true, true, true, false, true, true, true, true, true, true, true, true, true, true, false, true, true, true, false, true, true, false, true, true, false, true, true, true, true, true, true, true, false, true, true, true, true, false, true, true, true, true, true, false, true, true, false, true, true, true, true, true, true, true, true, false, true, true, true, true, true, true, true, false, true, true, true, true, true, true, true, true, true, true, false, true, true, true, true, true, true, true, true, true, true, true, true, false, true, true, true, true, true, true, true, true, false, true, true, false, true, false, true, true, true, true, true, true, true, true, true, true, false, false, true, true, true, true, true, false, true, true, true, true, false, true, true, true, true, true, true, true, false, true, true, true, true, true, true, true, true, true, false, true, true, true, true, true, true, true, false, true, true, true, true, true, true, false, true, true, true, true, true, true, true, true, true, true, true, true, true, true, true, true, false, true, true, true, true, true, true, true, true, true, true, false, true, true, true, true, false, true, true, true, true, true, true, true, true, false, true, true, true, true, true, true, true, true, true, true, true, true, true, true, true, true, true, true, true, true, true, true, true, true, true, true, true, true, true, true, true, false, true, true, true, true, true, true, true, true, false, true, true, true, false, true, true, true, true, true, true, true, true, true, true, true, true, true, true, true, true, true, true, true, true, true, false, true, false, false, false, false, false, true, true, true, true, true, true, false, true, true, false, true, true, true, false, true, true, true, true, true, true, true, true, false, true, true, false, true, true, true, true, true, true, true, true, true, true, true, true, true, true, true, true, false, true, true, true, true, true, true, true, true, true, true, true, false, true, true, true, false, true, false, true, true, true, true, true, true, true, true, true, true, true, true, true, false, true, true, true, true, true, true, true, true, true, true, true, true, true, true, true, true, false, true, true, true, true, true, true, true, true, true, true, true, true, true, false, true, true, true, true, true, true, true, true, true, true, true, true, true, false, true, false, true, true, true, true, true, true, true, true, true, true, true, true, true, true, true, true, true, true, true, true, true, true, true, true, true, true, true, true, true, true, false, true, true, true, true, false, true, true, true, false, true, true, false, true, true, true, true, true, true, false, true, true, false, true, true, true, true, true, false, true, false, true, true, true, true, true, true, true, true, true, false, true, true, true, true, true, true, true, true, true, true, false, true, true, true, false, true, true, false, true, true, true, true, true, false, true, true, true, true, true, true, true, true, true, true, true, false, true, true, true, true, false, true, true, true, true, true, true, true, true, true, true, true, true, true, true, true, true, true, false, true, true, true, true, true, true, true, true, true, true, true, true, true, true, true, true, false, true, true, true, true, true, true, true, true, true, true, true, true, true, true, true, false, false, true, true, false, true, true, true, true, true, true, true, true, true, true, true, true, true, true, true, false, false, true, true, true, true, true, true, true, true, true, true, true, true, true, true, true, true, true, true, true, true, true, false, true, true, true, true, true, true, true, true, true, true, true, true, true, true, true, true, true, true, true, true, true, true, false, true, false, true, true, true, true, true, true, true, true, false, true, true, true, false, true, true, true, true, true, true, true, true, true, true, true, true, true, true, true, true, true, false, true, true, true, true, true, true, true, true, true, true, true, true, false, true, false, true, true, false, true, true, true, true, true, true, true, true, true, true, false, true, true, true, false, true, true, false, true, true, true, true, true, true, true, true, true, true, true, false, true, true, true, true, true, true, true, true, true, true, true, true, true, true, true, true, true, true, true, true, false, true, true, false, true, true, true, true, true, true, true, true, true, true, true, true, true, true, true, true, true, true, true, true, true, false, true, true, true, false, true, true, true, true, true, true, true, true, true, true, false, true, true, true, true, true, true, true, true, true, true, true, false, true, true, true, false, true, true, true, true, true, true, true, false, true, true, true, true, true, true, true, true, true, true, true, true, true, true, true, false, true, true, true, true, true, true, true, true, true, true, true, true, true, true, true, true, false, true, true, true, true, true, true, true, true, true, false, true, true, true, false, true, true, true, true, true, true, true, false, true, true, false, false, true, true, true, true, true, true, true, false, true, false, true, false, true, true, false, true, true, true, true, true, true, true, true, true, true, false, true, true, true, true, true, true, true, true, true, true, false, true, true, true, false, true, true, true, true, false, true, true, true, false, false, true, true, true, false, true, true, true, true, true, true, true, true, true, true, true, true, false, true, true, false, false, true, true, true, true, true, true, false, true, true, true, true, true, true, true, true, true, true, true, true, true, false, false, false, true, true, true, true, true, true, true, true, true, true, true, true, true, true, true, false, false, true, true, true, true, true, true, true, true, true, true, true, true, true, true, true, true, true, true, true, true, false, true, true, true, true, true, true, true, true, true, true, true, false, true, false, true, true, true, true, true, true, true, true, true, false, true, false, true, true, true, true, true, true, true, true, true, true, true, true, true, true, true, true, true, true, true, true, false, true, true, true, false, true, false, true, false, true, true, true, true, true, true, true, true, true, true, true, true, true, true, true, true, true, true, true, true, true, true, true, true, true, true, true, false, false, true, true, true, true, true, true, false, false, true, true, true, true, true, true, true, true, true, true, true, true, true, true, true, true, true, true, true, true, false, true, true, true, true, true, true, true, true, true, true, true, false, true, true, true, true, true, true, true, true, true, true, true, true, true, true, true, true, true, true, true, true, true, true, false, true, true, true, true, true, true, true, false, true, true, true, true, true, true, true, true, true, true, false, true, true, true, true, false, true, true, true, true, true, true, false, true, false, true, true, true, true, true, true, true, true, false, true, true, true, true, false, true, true, true, true, true, false, true, true, true, true, false, true, true, true, true, true, true, true, true, true, true, true, true, true, true, true, true, true, true, true, true, true, false, true, false, true, true, false, true, true, true, true, false, true, true, true, true, true, true, true, true, true, true, true, true, true, true, true, true, true, false, false, true, true, true, true, true, true, true, true, true, true, true, true, true, true, true, true, true, true, true, true, true, true, false, true, true, true, true, false, true, true, true, true, true, true, false, true, true, false, false, true, true, true, true, true, true, true, false, false, true, true, true, false, true, true, true, true, true, true, true, false, true, true, false, true, true, true, false, true, false, true, true, true, false, true, true, true, true, true, true, true, true, true, true, true, true, false, true, true, true, true, true, true, true, true, true, true, true, true, true, false, true, true, true, true, true, true, true, true, true, true, true, true, false, false, true, true, true, true, true, true, true, false, true, true, true, true, true, true, true, false, false, false, true, true, true, true, true, true, true, true, true, true, true, true, true, true, true, true, true, true, true, true, true, true, true, true, true, true, true, true, true, false, false, true, false, true, true, false, true, true, true, true, true, true, true, true, true, true, true, true, true, true, true, true, true, true, false, true, false, true, true, true, true, true, true, true, false, true, true, true, true, true, true, true, true, true, true, true, true, true, true, true, true, false, true, true, true, true, true, true, true, true, true, false, true, true, true, true, true, true, true, true, true, true, true, false, true, true, true, true, true, true, true, true, true, true, false, false, true, true, true, true, false, true, true, false, true, true, true, true, true, true, true, true, true, true, true, true, true, true, true, true, true, true, true, true, true, true, true, true, true, false, true, false, true, true, true, true, true, true, true, true, true, true, true, true, true, false, true, true, true, true, true, true, true, true, true, true, true, true, true, true, true, false, true, true, true, true, true, true, true, true, false, true, true, true, true, true, true, true, true, true, false, true, true, true, true, true, true, true, true, false, true, true, false, true, true, true, true, true, true, true, true, true, true, true, true, false, true, true, true, true, true, true, true, true, true, false, true, true, false, true, true, true, true, false, true, true, true, true, true, false, true, true, true, true, true, true, true, false, true, true, true, true, true, true, true, true, true, true, true, true, true, true, true, false, false, false, true, true, true, true, true, true, true, true, true, true, true, true, true, true, true, true, true, true, true, true, true, true, true, true, true, true, true, true, true, true, true, true, true, true, true, true, true, true, true, true, true, true, true, true, true, true, true, true, false, true, false, true, false, true, true, true, true, true, true, true, true, true, true, true, true, true, true, true, true, true, true, false, true, true, true, true, true, true, true, true, false, true, true, true, true, true, true, true, true, false, true, true, true, true, false, true, true, true, true, false, true, true, true, true, true, true, true, true, true, true, true, true, true, true, true, true, true, true, false, true, true, true, true, true, true, true, true, true, true, true, true, true, true, true, true, false, false, true, true, true, true, true, true, true, true, true, true, true, true, true, true, true, true, true, true, true, true, true, true, true, true, true, true, true, true, true, true, true, true, true, true, true, false, true, true, true, true, true, true, true, false, true, true, true, true, true, true, false, true, true, true, false, true, true, true, true, true, false, true, true, true, true, true, true, true, true, true, true, true, true, false, true, true, true, true, true, true, true, true, true, true, true, true, true, true, true, true, true, true, true, true, false, true, true, false, true, true, true, false, true, true, true, true, false, true, true, true, true, true, false, true, true, true, false, true, true, true, true, true, true, true, true, true, true, true, true, false, true, false, false, false, true, true, true, false, true, true, true, true, true, true, true, false, true, true, true, true, true, true, true, true, false, true, true, true, true, true, false, true, true, true, true, true, true, true, true, true, true, false, true, true, true, false, true, true, true, true, true, true, true, true, true, true, true, true, true, true, true, true, true, true, true, false, true, true, true, true, true, false, true, true, true, true, true, true, true, true, true, true, true, true, true, true, true, true, true, true, true, true, true, true, true, true, true, true, true, true, true, true, true, true, true, true, true, true, true, true, true, true, true, true, true, true, true, true, true, true, true, true, true, false, true, true, true, true, false, true, true, true, true, true, true, true, false, true, true, true, true, true, true, false, true, true, true, true, false, true, true, true, true, true, true, true, true, true, true, true, true, true, true, true, true, true, true, true, true, true, true, false, true, false, true, true, true, false, true, true, true, false, true, true, true, true, true, true, true, true, true, true, true, true, true, true, true, true, true, true, true, true, true, true, true, true, true, true, true, true, true, true, true, true, true, false, true, true, true, true, true, true, true, true, true, true, true, true, false, false, false, true, true, true, true, false, true, true, true, true, true, true, true, true, true, true, true, true, true, true, true, true, true, true, true, true, false, true, true, true, true, true, true, true, true, true, true, true, true, true, true, true, true, true, true, true, true, false, true, true, true, true, true, false, true, true, true, true, true, true, true, true, true, true, true, false, true, true, true]);
num_processes = 100;
num_nodes = 50;
process_load = array1d(1..100,[431, 536, 422, 322, 498, 411, 238, 323, 473, 514, 547, 148, 579, 413, 294, 578, 126, 374, 583, 155, 186, 426, 188, 220, 455, 588, 106, 314, 452, 284, 428, 504, 149, 553, 214, 468, 441, 207, 294, 549, 549, 121, 432, 468, 154, 236, 320, 383, 570, 421, 203, 495, 426, 231, 359, 531, 507, 380, 499, 130, 472, 504, 274, 148, 111, 414, 263, 354, 500, 325, 259, 462, 386, 260, 207, 212, 594, 526, 215, 244, 369, 131, 579, 126, 120, 165, 398, 360, 417, 155, 414, 259, 504, 324, 598, 327, 526, 314, 348, 576]);
